100
590 193
973 40
628 468
978 332
107 302
814 944
738 547
136 28
303 503
38 490
943 240
274 95
527 69
274 695
36 217
402 339
166 201
954 305
117 275
767 799
842 131
439 716
889 99
283 809
991 811
737 594
663 677
748 552
796 455
246 770
256 832
513 181
222 310
854 570
146 847
489 452
513 375
670 994
594 131
386 263
637 260
139 796
163 317
849 620
729 499
667 750
155 846
540 458
126 260
23 603
645 493
433 391
748 657
783 187
263 456
991 349
309 103
968 892
369 497
887 51
508 548
379 669
196 709
89 161
264 204
52 813
392 766
740 395
458 459
346 468
668 992
554 649
351 695
896 943
114 283
792 341
465 11
610 289
868 427
788 143
572 681
104 796
758 712
788 293
352 779
462 71
572 703
676 176
905 627
636 432
726 249
540 72
498 349
400 677
530 951
288 957
848 825
799 816
814 350
935 729
